Version identifier: 22.1.0.0 | 2022-03-09 | 1a383f8ce
CPXPARAM_Read_DataCheck                          1
CPXPARAM_TimeLimit                               600
1 of 1 MIP starts provided solutions.
MIP start 'm1' defined initial solution with objective 85.0000.
Tried aggregator 4 times.
MIP Presolve eliminated 225650 rows and 15776 columns.
MIP Presolve modified 2050 coefficients.
Aggregator did 213606 substitutions.
Reduced MIP has 17219 rows, 216868 columns, and 451415 nonzeros.
Reduced MIP has 216818 binaries, 50 generals, 0 SOSs, and 0 indicators.
Presolve time = 3.48 sec. (3602.94 ticks)
Tried aggregator 1 time.
Detecting symmetries...
Reduced MIP has 17219 rows, 216868 columns, and 451415 nonzeros.
Reduced MIP has 216818 binaries, 50 generals, 0 SOSs, and 0 indicators.
Presolve time = 0.71 sec. (360.08 ticks)
Probing fixed 76 vars, tightened 0 bounds.
Probing time = 1.04 sec. (105.27 ticks)
Clique table members: 437584.
MIP emphasis: balance optimality and feasibility.
MIP search method: dynamic search.
Parallel mode: deterministic, using up to 8 threads.
Root relaxation solution time = 2.04 sec. (1308.91 ticks)

        Nodes                                         Cuts/
   Node  Left     Objective  IInf  Best Integer    Best Bound    ItCnt     Gap

*     0+    0                           85.0000        0.0000           100.00%
      0     0       50.4248 13235       85.0000       50.4248       27   40.68%
      0     0        cutoff             85.0000                     62    0.00%
Elapsed time = 31.58 sec. (25777.43 ticks, tree = 0.01 MB, solutions = 1)

Gomory fractional cuts applied:  35

Root node processing (before b&c):
  Real time             =   31.60 sec. (25792.69 ticks)
Parallel b&c, 8 threads:
  Real time             =    0.00 sec. (0.00 ticks)
  Sync time (average)   =    0.00 sec.
  Wait time (average)   =    0.00 sec.
                          ------------
Total (root+branch&cut) =   31.60 sec. (25792.69 ticks)
